Optimal - objective value 8.00000000
      0 x_0_0                       1                       1
      2 x_1_1                       1                       1
      5 x_2_2                       1                       1
      7 x_3_1                       1                       0
     11 x_4_1                       1                       0
     20 x_5_5                       1                       0
     23 x_6_2                       1                       0
     35 x_7_7                       1                       1
     36 x_8_0                       1                       0
     47 x_9_2                       1                      -1
     65 x_10_10                     1                       1
     66 x_11_0                      1                       0
     85 x_12_7                      1                       0
    104 x_13_13                     1                       1
    118 x_14_13                     1                       0
    130 x_15_10                     1                       0
    146 x_16_10                     1                       0
    163 x_17_10                     1                       0
    178 x_18_7                      1                       0
    195 x_19_5                      1                       0
    230 x_20_20                     1                       0
    244 x_21_13                     1                      -1
    266 x_22_13                     1                       0
    281 x_23_5                      1                       0
    320 x_24_20                     1                       0
    327 x_25_2                      1                       0
    358 x_26_7                      1                       0
    388 x_27_10                     1                       0
    411 x_28_5                      1                       0
    440 x_29_5                      1                       0
    485 x_30_20                     1                       0
    501 x_31_5                      1                       0
    528 x_32_0                      1                       0
    581 x_33_20                     1                       0
    596 x_34_1                      1                       0
    637 x_35_7                      1                       0
    686 x_36_20                     1                       0
    705 x_37_2                      1                       0
    741 x_38_0                      1                       0
    782 x_39_2                      1                       0
    821 x_40_1                      1                       0
    868 x_41_7                      1                       0
    923 x_42_20                     1                       0
    959 x_43_13                     1                       0
   1003 x_44_13                     1                       0
   1042 x_45_7                      1                       0
   1081 x_46_0                      1                       0
   1130 x_47_2                      1                       0
   1178 x_48_2                      1                       0
   1232 x_49_7                      1                       0
   1282 x_50_7                      1                       0
   1336 x_51_10                     1                       0
